Problem:    
Rows:       113
Columns:    45 (34 integer, 34 binary)
Non-zeros:  348
Status:     INTEGER OPTIMAL
Objective:  value = 13.158944 (MINimum)

   No.   Row name        Activity     Lower bound   Upper bound
------ ------------    ------------- ------------- -------------
     1 r.5                   13.1589             0               
     2 r.6                   13.1589      -996.283               
     3 r.7                   1013.16             0               
     4 r.8                  -986.841      -995.407               
     5 r.9                   1013.16             0               
     6 r.10                 -991.748      -992.048               
     7 r.11                  13.1589             0               
     8 r.12                  13.1589      -987.935               
     9 r.13                  13.1589             0               
    10 r.14                  -994.76       -995.06               
    11 r.15                  1013.16             0               
    12 r.16                 -991.434      -993.402               
    13 r.17                  1013.16             0               
    14 r.18                 -986.841      -995.093               
    15 r.19                  13.1589             0               
    16 r.20                  13.1589      -993.235               
    17 r.21                  1013.16             0               
    18 r.22                 -999.701      -999.701               
    19 r.23                  13.1589             0               
    20 r.24                 0.299444      -999.453               
    21 r.25                        1             1             = 
    22 r.26                        1             1             = 
    23 r.27                        1             1             = 
    24 r.28                        1             1             = 
    25 r.29                        1             1             = 
    26 r.30                     1001             2               
    27 r.31                    -1001         -1001               
    28 r.32                  1995.09      -992.048               
    29 r.33                     1001             2               
    30 r.34                    -1001         -1001               
    31 r.35                     2000      -987.935               
    32 r.36                     1000             2               
    33 r.37                    -1000         -1001               
    34 r.38                  992.081       -995.06               
    35 r.39                        2             2               
    36 r.40                       -2         -1001               
    37 r.41                 -4.59255      -993.402               
    38 r.42                     1001             2               
    39 r.43                    -1001         -1001               
    40 r.44                     2000      -995.093               
    41 r.45                     1001             2               
    42 r.46                    -1001         -1001               
    43 r.47                     2000      -993.235               
    44 r.48                  12.8595      -996.283               
    45 r.49                  -987.14      -995.407               
    46 r.50                  12.8595      -996.283               
    47 r.51                  -987.14      -995.407               
    48 r.52                     1001             2               
    49 r.53                    -1001         -1001               
    50 r.54                  2004.91        3.7168               
    51 r.55                     1001             2               
    52 r.56                    -1001         -1001               
    53 r.57                     2000       4.59255               
    54 r.58                     1001             2               
    55 r.59                    -1001         -1001               
    56 r.60                  996.988       -995.06               
    57 r.61                     1001             2               
    58 r.62                    -1001         -1001               
    59 r.63                  1995.41      -993.402               
    60 r.64                        2             2               
    61 r.65                       -2         -1001               
    62 r.66                 -995.093      -995.093               
    63 r.67                     1000             2               
    64 r.68                    -1000         -1001               
    65 r.69                     2000      -993.235               
    66 r.70                 -992.048      -992.048               
    67 r.71                  12.8595      -987.935               
    68 r.72                 -992.048      -992.048               
    69 r.73                  12.8595      -987.935               
    70 r.74                     1000             2               
    71 r.75                    -1000         -1001               
    72 r.76                  3007.92        3.7168               
    73 r.77                        2             2               
    74 r.78                       -2         -1001               
    75 r.79                  4.59255       4.59255               
    76 r.80                     1001             2               
    77 r.81                    -1001         -1001               
    78 r.82                  3003.01        7.9525               
    79 r.83                     1001             2               
    80 r.84                    -1001         -1001               
    81 r.85                  2004.59       12.0648               
    82 r.86                     1001             2               
    83 r.87                    -1001         -1001               
    84 r.88                  3007.92      -995.093               
    85 r.89                     1001             2               
    86 r.90                    -1001         -1001               
    87 r.91                  2004.59      -993.235               
    88 r.92                  -995.06       -995.06               
    89 r.93                 -991.733      -993.402               
    90 r.94                  -995.06       -995.06               
    91 r.95                 -991.733      -993.402               
    92 r.96                     1001             2               
    93 r.97                    -1001         -1001               
    94 r.98                     2000        3.7168               
    95 r.99                     1001             2               
    96 r.100                   -1001         -1001               
    97 r.101                    2000       4.59255               
    98 r.102                       2             2               
    99 r.103                      -2         -1001               
   100 r.104                 995.093        7.9525               
   101 r.105                    1000             2               
   102 r.106                   -1000         -1001               
   103 r.107                    2000       12.0648               
   104 r.108                    1001             2               
   105 r.109                   -1001         -1001               
   106 r.110                 992.081        4.9401               
   107 r.111                    1001             2               
   108 r.112                   -1001         -1001               
   109 r.113                 1995.41       6.59838               
   110 r.114                 -987.14      -995.093               
   111 r.115                 12.8595      -993.235               
   112 r.116                 -987.14      -995.093               
   113 r.117                 12.8595      -993.235               

   No. Column name       Activity     Lower bound   Upper bound
------ ------------    ------------- ------------- -------------
     1 tt                    13.1589             0               
     2 s_1_1        *              0             0             1 
     3 t_1_1                       0             0               
     4 s_2_1        *              1             0             1 
     5 t_2_1                       0             0               
     6 s_1_2        *              1             0             1 
     7 t_1_2                   4.907             0               
     8 s_2_2        *              0             0             1 
     9 t_2_2                       0             0               
    10 s_1_3        *              0             0             1 
    11 t_1_3                 1007.92             0               
    12 s_2_3        *              1             0             1 
    13 t_2_3                 4.59255             0               
    14 s_1_4        *              1             0             1 
    15 t_1_4                       0             0               
    16 s_2_4        *              0             0             1 
    17 t_2_4                       0             0               
    18 s_1_5        *              1             0             1 
    19 t_1_5                 12.8595             0               
    20 s_2_5        *              0             0             1 
    21 t_2_5                 12.8595             0               
    22 r_1_1_2      *              1             0             1 
    23 u_1_1_2      *              0             0             1 
    24 r_2_1_2      *              1             0             1 
    25 u_2_1_2      *              0             0             1 
    26 r_1_1_3      *              1             0             1 
    27 u_1_1_3      *              0             0             1 
    28 r_2_1_3      *              0             0             1 
    29 u_2_1_3      *              0             0             1 
    30 r_1_1_4      *              1             0             1 
    31 u_1_1_4      *              0             0             1 
    32 r_2_1_4      *              1             0             1 
    33 u_2_1_4      *              0             0             1 
    34 r_1_2_3      *              1             0             1 
    35 u_1_2_3      *              0             0             1 
    36 r_2_2_3      *              1             0             1 
    37 u_2_2_3      *              0             0             1 
    38 r_1_2_4      *              0             0             1 
    39 u_1_2_4      *              1             0             1 
    40 r_2_2_4      *              1             0             1 
    41 u_2_2_4      *              0             0             1 
    42 r_1_3_4      *              1             0             1 
    43 u_1_3_4      *              0             0             1 
    44 r_2_3_4      *              1             0             1 
    45 u_2_3_4      *              0             0             1 

Integer feasibility conditions:

KKT.PE: max.abs.err = 4.55e-13 on row 78
        max.rel.err = 7.56e-17 on row 78
        High quality

KKT.PB: max.abs.err = 0.00e+00 on row 0
        max.rel.err = 0.00e+00 on row 0
        High quality

End of output
